c This is an instance of the exact track of PACE 2020 Challenge, see https://pacechallenge.org/2020/ 
c TYPE: biology 
c ORIGIN: www.genome.jp/kegg/ 
c DESCRIPTION: nan 
p tdp 29 47
4 27
4 5
4 28
27 1
14 19
14 13
14 20
14 16
14 21
14 25
14 17
14 22
14 26
14 18
14 11
14 23
19 6
19 24
5 6
22 24
22 6
24 17
24 23
24 25
24 18
24 26
24 20
24 21
24 16
28 29
28 15
6 20
6 16
6 25
6 21
6 17
6 26
6 18
6 23
13 12
7 10
7 8
10 11
12 15
8 9
2 3
2 1
